SYSTEM = "VASP"
NELMIN = 4
NELM = 201
EDIFF = 1E-8
EDIFFG = 1E-7
ISMEAR = -1
SIGMA = 0.0001
NSW = 999
ISIF = 2
IBRION = 2
LREAL = .FALSE.
ENCUT = replace_encut
# KSPACING
# KGAMMA
LORBIT = 11
NCORE = 8